-265 -289 0
27 -289 0
-286 -289 0
-289 0
-25 0
1 0
265 0
49 0
-241 0
-73 0
17 0
-169 0
-41 0
-185 0
-217 0
-97 0
9 0
281 0
-33 0
-105 0
-177 0
-113 0
-145 0
-257 0
273 0
13 0
-249 0
-133 0
-141 0
-37 0
-109 0
-181 0
-149 0
5 0
21 0
277 0
-61 0
-29 0
-65 0
-101 0
-137 0
-173 0
-69 0
-77 0
-205 0
-213 0
-221 0
-209 0
-45 0
-81 0
-117 0
-153 0
-189 0
-225 0
-253 0
269 0
19 0
3 0
285 0
-245 0
-187 0
-191 0
-195 0
-199 0
-203 0
-43 0
-79 0
-115 0
-151 0
-223 0
-27 0
-207 0
-235 0
-83 0
-87 0
-91 0
-95 0
-99 0
-135 0
-47 0
-7 0
-51 0
-55 0
-63 0
-227 0
-231 0
-239 0
-243 0
-171 0
-59 0
-261 0
23 0
11 0
15 0
0
